n=20;
K=50000;
p=[1530, 1690, 1964, 323, 2814, 586, 2808, 2064, 1825, 1451, 1835, 3427, 2012, 4080, 4624, 4047, 4122, 172, 1201, 3495];
w=[22038, 3049, 4256, 3815, 1340, 2128, 2329, 10421, 63, 11650, 10286, 1946, 3881, 23132, 10911, 8898, 13044, 8542, 432, 3057];
